Route #1: 31 29 27 26 34 32 
Route #2: 42 39 36 44 38 40 43 37 35 
Route #3: 47 7 6 8 46 3 1 4 
Route #4: 14 11 12 15 16 9 10 13 17 
Route #5: 5 45 2 41 
Route #6: 23 21 18 19 22 49 20 24 
Route #7: 33 28 30 50 48 25 
Objective: 68271.1
